nK = 2032;
nT = 8;
nI = 21;
L = 35;
TT = 438;
np = 1;
nc = 3;
b = [40, 56, 23, 67, 61, 60, 51, 64, 41, 51, 59, 44, 30, 51, 68, 65, 25, 63, 58, 28, 69];
d = [131, 121, 113, 101, 114, 108, 96, 118, 116, 93, 124, 82, 114, 93, 147, 115, 101, 142, 93, 117, 143];
m = [1.6, 2.1, 1.2, 1.5, 1.6, 2.4, 1.4, 2.1, 2.4, 2.4, 1, 1.7, 1.1, 1.1, 1.4, 2, 1, 2, 2.3, 1.7, 1.1];
pt = [0.29, 0.32, 0.22, 0.35, 0.21, 0.22, 0.31, 0.28];
st = [15.37, 16.96, 12.54, 16.8, 11.34, 13.2, 17.36, 12.6];
arc = {<1, 0, 1, 1, 0, 0, 0, [1, 1, 1, 1, 1, 1, 1, 1]>, <2, 1, 2, 1, 0, 0, 0, [1, 1, 1, 1, 1, 1, 1, 1]>, <3, 2, 3, 1, 0, 0, 0, [1, 1, 1, 1, 1, 1, 1, 1]>, <4, 3, 4, 1, 0, 0, 0, [1, 1, 1, 1, 1, 1, 1, 1]>, <5, 4, 5, 1, 0, 0, 0, [1, 1, 1, 1, 1, 1, 1, 1]>, <6, 5, 6, 1, 0, 0, 0, [1, 1, 1, 1, 1, 1, 1, 1]>, <7, 6, 7, 1, 0, 0, 0, [1, 1, 1, 1, 1, 1, 1, 1]>, <8, 7, 8, 1, 0, 0, 0, [1, 1, 1, 1, 1, 1, 1, 1]>, <9, 8, 9, 1, 0, 0, 0, [1, 1, 1, 1, 1, 1, 1, 1]>, <10, 9, 10, 1, 0, 0, 0, [1, 1, 1, 1, 1, 1, 1, 1]>, <11, 10, 11, 1, 0, 0, 0, [1, 1, 1, 1, 1, 1, 1, 1]>, <12, 11, 12, 1, 0, 0, 0, [1, 1, 1, 1, 1, 1, 1, 1]>, <13, 12, 13, 1, 0, 0, 0, [1, 1, 1, 1, 1, 1, 1, 1]>, <14, 13, 14, 1, 0, 0, 0, [1, 1, 1, 1, 1, 1, 1, 1]>, <15, 14, 15, 1, 0, 0, 0, [1, 1, 1, 1, 1, 1, 1, 1]>, <16, 15, 16, 1, 0, 0, 0, [1, 1, 1, 1, 1, 1, 1, 1]>, <17, 16, 17, 1, 0, 0, 0, [1, 1, 1, 1, 1, 1, 1, 1]>, <18, 17, 18, 1, 0, 0, 0, [1, 1, 1, 1, 1, 1, 1, 1]>, <19, 18, 19, 1, 0, 0, 0, [1, 1, 1, 1, 1, 1, 1, 1]>, <20, 19, 20, 1, 0, 0, 0, [1, 1, 1, 1, 1, 1, 1, 1]>, <21, 20, 21, 1, 0, 0, 0, [1, 1, 1, 1, 1, 1, 1, 1]>, <22, 21, 22, 1, 0, 0, 0, [1, 1, 1, 1, 1, 1, 1, 1]>, <23, 22, 23, 1, 0, 0, 0, [1, 1, 1, 1, 1, 1, 1, 1]>, <24, 23, 24, 1, 0, 0, 0, [1, 1, 1, 1, 1, 1, 1, 1]>, <25, 24, 25, 1, 0, 0, 0, [1, 1, 1, 1, 1, 1, 1, 1]>, <26, 25, 26, 1, 0, 0, 0, [1, 1, 1, 1, 1, 1, 1, 1]>, <27, 26, 27, 1, 0, 0, 0, [1, 1, 1, 1, 1, 1, 1, 1]>, <28, 27, 28, 1, 0, 0, 0, [1, 1, 1, 1, 1, 1, 1, 1]>, <29, 28, 29, 1, 0, 0, 0, [1, 1, 1, 1, 1, 1, 1, 1]>, <30, 29, 30, 1, 0, 0, 0, [1, 1, 1, 1, 1, 1, 1, 1]>, <31, 30, 31, 1, 0, 0, 0, [1, 1, 1, 1, 1, 1, 1, 1]>, <32, 31, 32, 1, 0, 0, 0, [1, 1, 1, 1, 1, 1, 1, 1]>, <33, 32, 33, 1, 0, 0, 0, [1, 1, 1, 1, 1, 1, 1, 1]>, <34, 33, 34, 1, 0, 0, 0, [1, 1, 1, 1, 1, 1, 1, 1]>, <35, 34, 35, 1, 0, 0, 0, [1, 1, 1, 1, 1, 1, 1, 1]>, <36, 2, 17, 15, 1, 1, 0, [0, 1, 1, 1, 1, 0, 0, 0]>, <37, 3, 18, 15, 1, 1, 0, [0, 1, 1, 1, 1, 0, 0, 0]>, <38, 4, 19, 15, 1, 1, 0, [0, 1, 1, 1, 1, 0, 0, 0]>, <39, 5, 20, 15, 1, 1, 0, [0, 1, 1, 1, 1, 0, 0, 0]>, <40, 6, 21, 15, 1, 1, 0, [0, 1, 1, 1, 1, 0, 0, 0]>, <41, 11, 26, 15, 1, 1, 0, [0, 1, 1, 1, 1, 0, 0, 0]>, <42, 12, 27, 15, 1, 1, 0, [0, 1, 1, 1, 1, 0, 0, 0]>, <43, 13, 28, 15, 1, 1, 0, [0, 1, 1, 1, 1, 0, 0, 0]>, <44, 14, 29, 15, 1, 1, 0, [0, 1, 1, 1, 1, 0, 0, 0]>, <45, 15, 30, 15, 1, 1, 0, [0, 1, 1, 1, 1, 0, 0, 0]>, <46, 16, 31, 15, 1, 1, 0, [0, 1, 1, 1, 1, 0, 0, 0]>, <47, 17, 32, 15, 1, 1, 0, [0, 1, 1, 1, 1, 0, 0, 0]>, <48, 18, 33, 15, 1, 1, 0, [0, 1, 1, 1, 1, 0, 0, 0]>, <49, 19, 34, 15, 1, 1, 0, [0, 1, 1, 1, 1, 0, 0, 0]>, <50, 20, 35, 15, 1, 1, 0, [0, 1, 1, 1, 1, 0, 0, 0]>, <51, 1, 17, 16, 2, 0, 0, [0, 1, 1, 1, 1, 0, 0, 0]>, <52, 2, 18, 16, 2, 0, 0, [0, 1, 1, 1, 1, 0, 0, 0]>, <53, 3, 19, 16, 2, 0, 0, [0, 1, 1, 1, 1, 0, 0, 0]>, <54, 4, 20, 16, 2, 0, 0, [0, 1, 1, 1, 1, 0, 0, 0]>, <55, 5, 21, 16, 2, 0, 0, [0, 1, 1, 1, 1, 0, 0, 0]>, <56, 6, 22, 16, 2, 0, 0, [0, 1, 1, 1, 1, 0, 0, 0]>, <57, 10, 26, 16, 2, 0, 0, [0, 1, 1, 1, 1, 0, 0, 0]>, <58, 11, 27, 16, 2, 0, 0, [0, 1, 1, 1, 1, 0, 0, 0]>, <59, 12, 28, 16, 2, 0, 0, [0, 1, 1, 1, 1, 0, 0, 0]>, <60, 13, 29, 16, 2, 0, 0, [0, 1, 1, 1, 1, 0, 0, 0]>, <61, 14, 30, 16, 2, 0, 0, [0, 1, 1, 1, 1, 0, 0, 0]>, <62, 15, 31, 16, 2, 0, 0, [0, 1, 1, 1, 1, 0, 0, 0]>, <63, 16, 32, 16, 2, 0, 0, [0, 1, 1, 1, 1, 0, 0, 0]>, <64, 17, 33, 16, 2, 0, 0, [0, 1, 1, 1, 1, 0, 0, 0]>, <65, 18, 34, 16, 2, 0, 0, [0, 1, 1, 1, 1, 0, 0, 0]>, <66, 19, 35, 16, 2, 0, 0, [0, 1, 1, 1, 1, 0, 0, 0]>, <67, 0, 19, 19, 3, 0, 1, [1, 1, 1, 0, 0, 0, 0, 1]>, <68, 1, 20, 19, 3, 0, 1, [1, 1, 1, 0, 0, 0, 0, 1]>, <69, 2, 21, 19, 3, 0, 1, [1, 1, 1, 0, 0, 0, 0, 1]>, <70, 3, 22, 19, 3, 0, 1, [1, 1, 1, 0, 0, 0, 0, 1]>, <71, 4, 23, 19, 3, 0, 1, [1, 1, 1, 0, 0, 0, 0, 1]>, <72, 5, 24, 19, 3, 0, 1, [1, 1, 1, 0, 0, 0, 0, 1]>, <73, 6, 25, 19, 3, 0, 1, [1, 1, 1, 0, 0, 0, 0, 1]>, <74, 7, 26, 19, 3, 0, 1, [1, 1, 1, 0, 0, 0, 0, 1]>, <75, 8, 27, 19, 3, 0, 1, [1, 1, 1, 0, 0, 0, 0, 1]>, <76, 9, 28, 19, 3, 0, 1, [1, 1, 1, 0, 0, 0, 0, 1]>, <77, 10, 29, 19, 3, 0, 1, [1, 1, 1, 0, 0, 0, 0, 1]>, <78, 11, 30, 19, 3, 0, 1, [1, 1, 1, 0, 0, 0, 0, 1]>, <79, 12, 31, 19, 3, 0, 1, [1, 1, 1, 0, 0, 0, 0, 1]>, <80, 13, 32, 19, 3, 0, 1, [1, 1, 1, 0, 0, 0, 0, 1]>, <81, 14, 33, 19, 3, 0, 1, [1, 1, 1, 0, 0, 0, 0, 1]>, <82, 15, 34, 19, 3, 0, 1, [1, 1, 1, 0, 0, 0, 0, 1]>, <83, 16, 35, 19, 3, 0, 1, [1, 1, 1, 0, 0, 0, 0, 1]>, <84, 1, 17, 16, 4, 0, 1, [0, 0, 0, 0, 1, 1, 1, 1]>, <85, 2, 18, 16, 4, 0, 1, [0, 0, 0, 0, 1, 1, 1, 1]>, <86, 3, 19, 16, 4, 0, 1, [0, 0, 0, 0, 1, 1, 1, 1]>, <87, 4, 20, 16, 4, 0, 1, [0, 0, 0, 0, 1, 1, 1, 1]>, <88, 5, 21, 16, 4, 0, 1, [0, 0, 0, 0, 1, 1, 1, 1]>, <89, 6, 22, 16, 4, 0, 1, [0, 0, 0, 0, 1, 1, 1, 1]>, <90, 10, 26, 16, 4, 0, 1, [0, 0, 0, 0, 1, 1, 1, 1]>, <91, 11, 27, 16, 4, 0, 1, [0, 0, 0, 0, 1, 1, 1, 1]>, <92, 12, 28, 16, 4, 0, 1, [0, 0, 0, 0, 1, 1, 1, 1]>, <93, 13, 29, 16, 4, 0, 1, [0, 0, 0, 0, 1, 1, 1, 1]>, <94, 14, 30, 16, 4, 0, 1, [0, 0, 0, 0, 1, 1, 1, 1]>, <95, 15, 31, 16, 4, 0, 1, [0, 0, 0, 0, 1, 1, 1, 1]>, <96, 16, 32, 16, 4, 0, 1, [0, 0, 0, 0, 1, 1, 1, 1]>, <97, 17, 33, 16, 4, 0, 1, [0, 0, 0, 0, 1, 1, 1, 1]>, <98, 18, 34, 16, 4, 0, 1, [0, 0, 0, 0, 1, 1, 1, 1]>, <99, 19, 35, 16, 4, 0, 1, [0, 0, 0, 0, 1, 1, 1, 1]>, <100, 1, 17, 16, 5, 0, 0, [0, 0, 0, 1, 1, 1, 1, 0]>, <101, 2, 18, 16, 5, 0, 0, [0, 0, 0, 1, 1, 1, 1, 0]>, <102, 3, 19, 16, 5, 0, 0, [0, 0, 0, 1, 1, 1, 1, 0]>, <103, 4, 20, 16, 5, 0, 0, [0, 0, 0, 1, 1, 1, 1, 0]>, <104, 5, 21, 16, 5, 0, 0, [0, 0, 0, 1, 1, 1, 1, 0]>, <105, 6, 22, 16, 5, 0, 0, [0, 0, 0, 1, 1, 1, 1, 0]>, <106, 10, 26, 16, 5, 0, 0, [0, 0, 0, 1, 1, 1, 1, 0]>, <107, 11, 27, 16, 5, 0, 0, [0, 0, 0, 1, 1, 1, 1, 0]>, <108, 12, 28, 16, 5, 0, 0, [0, 0, 0, 1, 1, 1, 1, 0]>, <109, 13, 29, 16, 5, 0, 0, [0, 0, 0, 1, 1, 1, 1, 0]>, <110, 14, 30, 16, 5, 0, 0, [0, 0, 0, 1, 1, 1, 1, 0]>, <111, 15, 31, 16, 5, 0, 0, [0, 0, 0, 1, 1, 1, 1, 0]>, <112, 16, 32, 16, 5, 0, 0, [0, 0, 0, 1, 1, 1, 1, 0]>, <113, 17, 33, 16, 5, 0, 0, [0, 0, 0, 1, 1, 1, 1, 0]>, <114, 18, 34, 16, 5, 0, 0, [0, 0, 0, 1, 1, 1, 1, 0]>, <115, 19, 35, 16, 5, 0, 0, [0, 0, 0, 1, 1, 1, 1, 0]>, <116, 0, 18, 18, 6, 0, 0, [0, 0, 0, 0, 1, 1, 1, 1]>, <117, 1, 19, 18, 6, 0, 0, [0, 0, 0, 0, 1, 1, 1, 1]>, <118, 2, 20, 18, 6, 0, 0, [0, 0, 0, 0, 1, 1, 1, 1]>, <119, 3, 21, 18, 6, 0, 0, [0, 0, 0, 0, 1, 1, 1, 1]>, <120, 4, 22, 18, 6, 0, 0, [0, 0, 0, 0, 1, 1, 1, 1]>, <121, 5, 23, 18, 6, 0, 0, [0, 0, 0, 0, 1, 1, 1, 1]>, <122, 6, 24, 18, 6, 0, 0, [0, 0, 0, 0, 1, 1, 1, 1]>, <123, 8, 26, 18, 6, 0, 0, [0, 0, 0, 0, 1, 1, 1, 1]>, <124, 9, 27, 18, 6, 0, 0, [0, 0, 0, 0, 1, 1, 1, 1]>, <125, 10, 28, 18, 6, 0, 0, [0, 0, 0, 0, 1, 1, 1, 1]>, <126, 11, 29, 18, 6, 0, 0, [0, 0, 0, 0, 1, 1, 1, 1]>, <127, 12, 30, 18, 6, 0, 0, [0, 0, 0, 0, 1, 1, 1, 1]>, <128, 13, 31, 18, 6, 0, 0, [0, 0, 0, 0, 1, 1, 1, 1]>, <129, 14, 32, 18, 6, 0, 0, [0, 0, 0, 0, 1, 1, 1, 1]>, <130, 15, 33, 18, 6, 0, 0, [0, 0, 0, 0, 1, 1, 1, 1]>, <131, 16, 34, 18, 6, 0, 0, [0, 0, 0, 0, 1, 1, 1, 1]>, <132, 17, 35, 18, 6, 0, 0, [0, 0, 0, 0, 1, 1, 1, 1]>, <133, 1, 17, 16, 7, 1, 0, [1, 1, 1, 0, 0, 0, 0, 1]>, <134, 2, 18, 16, 7, 1, 0, [1, 1, 1, 0, 0, 0, 0, 1]>, <135, 3, 19, 16, 7, 1, 0, [1, 1, 1, 0, 0, 0, 0, 1]>, <136, 4, 20, 16, 7, 1, 0, [1, 1, 1, 0, 0, 0, 0, 1]>, <137, 5, 21, 16, 7, 1, 0, [1, 1, 1, 0, 0, 0, 0, 1]>, <138, 6, 22, 16, 7, 1, 0, [1, 1, 1, 0, 0, 0, 0, 1]>, <139, 10, 26, 16, 7, 1, 0, [1, 1, 1, 0, 0, 0, 0, 1]>, <140, 11, 27, 16, 7, 1, 0, [1, 1, 1, 0, 0, 0, 0, 1]>, <141, 12, 28, 16, 7, 1, 0, [1, 1, 1, 0, 0, 0, 0, 1]>, <142, 13, 29, 16, 7, 1, 0, [1, 1, 1, 0, 0, 0, 0, 1]>, <143, 14, 30, 16, 7, 1, 0, [1, 1, 1, 0, 0, 0, 0, 1]>, <144, 15, 31, 16, 7, 1, 0, [1, 1, 1, 0, 0, 0, 0, 1]>, <145, 16, 32, 16, 7, 1, 0, [1, 1, 1, 0, 0, 0, 0, 1]>, <146, 17, 33, 16, 7, 1, 0, [1, 1, 1, 0, 0, 0, 0, 1]>, <147, 18, 34, 16, 7, 1, 0, [1, 1, 1, 0, 0, 0, 0, 1]>, <148, 19, 35, 16, 7, 1, 0, [1, 1, 1, 0, 0, 0, 0, 1]>, <149, 0, 19, 19, 8, 0, 0, [1, 1, 1, 0, 0, 0, 0, 1]>, <150, 1, 20, 19, 8, 0, 0, [1, 1, 1, 0, 0, 0, 0, 1]>, <151, 2, 21, 19, 8, 0, 0, [1, 1, 1, 0, 0, 0, 0, 1]>, <152, 3, 22, 19, 8, 0, 0, [1, 1, 1, 0, 0, 0, 0, 1]>, <153, 4, 23, 19, 8, 0, 0, [1, 1, 1, 0, 0, 0, 0, 1]>, <154, 5, 24, 19, 8, 0, 0, [1, 1, 1, 0, 0, 0, 0, 1]>, <155, 6, 25, 19, 8, 0, 0, [1, 1, 1, 0, 0, 0, 0, 1]>, <156, 7, 26, 19, 8, 0, 0, [1, 1, 1, 0, 0, 0, 0, 1]>, <157, 8, 27, 19, 8, 0, 0, [1, 1, 1, 0, 0, 0, 0, 1]>, <158, 9, 28, 19, 8, 0, 0, [1, 1, 1, 0, 0, 0, 0, 1]>, <159, 10, 29, 19, 8, 0, 0, [1, 1, 1, 0, 0, 0, 0, 1]>, <160, 11, 30, 19, 8, 0, 0, [1, 1, 1, 0, 0, 0, 0, 1]>, <161, 12, 31, 19, 8, 0, 0, [1, 1, 1, 0, 0, 0, 0, 1]>, <162, 13, 32, 19, 8, 0, 0, [1, 1, 1, 0, 0, 0, 0, 1]>, <163, 14, 33, 19, 8, 0, 0, [1, 1, 1, 0, 0, 0, 0, 1]>, <164, 15, 34, 19, 8, 0, 0, [1, 1, 1, 0, 0, 0, 0, 1]>, <165, 16, 35, 19, 8, 0, 0, [1, 1, 1, 0, 0, 0, 0, 1]>, <166, 0, 18, 18, 9, 0, 0, [1, 1, 0, 0, 0, 0, 1, 1]>, <167, 1, 19, 18, 9, 0, 0, [1, 1, 0, 0, 0, 0, 1, 1]>, <168, 2, 20, 18, 9, 0, 0, [1, 1, 0, 0, 0, 0, 1, 1]>, <169, 3, 21, 18, 9, 0, 0, [1, 1, 0, 0, 0, 0, 1, 1]>, <170, 4, 22, 18, 9, 0, 0, [1, 1, 0, 0, 0, 0, 1, 1]>, <171, 5, 23, 18, 9, 0, 0, [1, 1, 0, 0, 0, 0, 1, 1]>, <172, 6, 24, 18, 9, 0, 0, [1, 1, 0, 0, 0, 0, 1, 1]>, <173, 8, 26, 18, 9, 0, 0, [1, 1, 0, 0, 0, 0, 1, 1]>, <174, 9, 27, 18, 9, 0, 0, [1, 1, 0, 0, 0, 0, 1, 1]>, <175, 10, 28, 18, 9, 0, 0, [1, 1, 0, 0, 0, 0, 1, 1]>, <176, 11, 29, 18, 9, 0, 0, [1, 1, 0, 0, 0, 0, 1, 1]>, <177, 12, 30, 18, 9, 0, 0, [1, 1, 0, 0, 0, 0, 1, 1]>, <178, 13, 31, 18, 9, 0, 0, [1, 1, 0, 0, 0, 0, 1, 1]>, <179, 14, 32, 18, 9, 0, 0, [1, 1, 0, 0, 0, 0, 1, 1]>, <180, 15, 33, 18, 9, 0, 0, [1, 1, 0, 0, 0, 0, 1, 1]>, <181, 16, 34, 18, 9, 0, 0, [1, 1, 0, 0, 0, 0, 1, 1]>, <182, 17, 35, 18, 9, 0, 0, [1, 1, 0, 0, 0, 0, 1, 1]>, <183, 1, 17, 16, 10, 0, 0, [1, 1, 0, 0, 0, 0, 1, 1]>, <184, 2, 18, 16, 10, 0, 0, [1, 1, 0, 0, 0, 0, 1, 1]>, <185, 3, 19, 16, 10, 0, 0, [1, 1, 0, 0, 0, 0, 1, 1]>, <186, 4, 20, 16, 10, 0, 0, [1, 1, 0, 0, 0, 0, 1, 1]>, <187, 5, 21, 16, 10, 0, 0, [1, 1, 0, 0, 0, 0, 1, 1]>, <188, 6, 22, 16, 10, 0, 0, [1, 1, 0, 0, 0, 0, 1, 1]>, <189, 10, 26, 16, 10, 0, 0, [1, 1, 0, 0, 0, 0, 1, 1]>, <190, 11, 27, 16, 10, 0, 0, [1, 1, 0, 0, 0, 0, 1, 1]>, <191, 12, 28, 16, 10, 0, 0, [1, 1, 0, 0, 0, 0, 1, 1]>, <192, 13, 29, 16, 10, 0, 0, [1, 1, 0, 0, 0, 0, 1, 1]>, <193, 14, 30, 16, 10, 0, 0, [1, 1, 0, 0, 0, 0, 1, 1]>, <194, 15, 31, 16, 10, 0, 0, [1, 1, 0, 0, 0, 0, 1, 1]>, <195, 16, 32, 16, 10, 0, 0, [1, 1, 0, 0, 0, 0, 1, 1]>, <196, 17, 33, 16, 10, 0, 0, [1, 1, 0, 0, 0, 0, 1, 1]>, <197, 18, 34, 16, 10, 0, 0, [1, 1, 0, 0, 0, 0, 1, 1]>, <198, 19, 35, 16, 10, 0, 0, [1, 1, 0, 0, 0, 0, 1, 1]>, <199, 0, 19, 19, 11, 0, 0, [0, 0, 0, 1, 1, 1, 1, 0]>, <200, 1, 20, 19, 11, 0, 0, [0, 0, 0, 1, 1, 1, 1, 0]>, <201, 2, 21, 19, 11, 0, 0, [0, 0, 0, 1, 1, 1, 1, 0]>, <202, 3, 22, 19, 11, 0, 0, [0, 0, 0, 1, 1, 1, 1, 0]>, <203, 4, 23, 19, 11, 0, 0, [0, 0, 0, 1, 1, 1, 1, 0]>, <204, 5, 24, 19, 11, 0, 0, [0, 0, 0, 1, 1, 1, 1, 0]>, <205, 6, 25, 19, 11, 0, 0, [0, 0, 0, 1, 1, 1, 1, 0]>, <206, 7, 26, 19, 11, 0, 0, [0, 0, 0, 1, 1, 1, 1, 0]>, <207, 8, 27, 19, 11, 0, 0, [0, 0, 0, 1, 1, 1, 1, 0]>, <208, 9, 28, 19, 11, 0, 0, [0, 0, 0, 1, 1, 1, 1, 0]>, <209, 10, 29, 19, 11, 0, 0, [0, 0, 0, 1, 1, 1, 1, 0]>, <210, 11, 30, 19, 11, 0, 0, [0, 0, 0, 1, 1, 1, 1, 0]>, <211, 12, 31, 19, 11, 0, 0, [0, 0, 0, 1, 1, 1, 1, 0]>, <212, 13, 32, 19, 11, 0, 0, [0, 0, 0, 1, 1, 1, 1, 0]>, <213, 14, 33, 19, 11, 0, 0, [0, 0, 0, 1, 1, 1, 1, 0]>, <214, 15, 34, 19, 11, 0, 0, [0, 0, 0, 1, 1, 1, 1, 0]>, <215, 16, 35, 19, 11, 0, 0, [0, 0, 0, 1, 1, 1, 1, 0]>, <216, 2, 17, 15, 12, 0, 0, [0, 0, 1, 1, 1, 1, 0, 0]>, <217, 3, 18, 15, 12, 0, 0, [0, 0, 1, 1, 1, 1, 0, 0]>, <218, 4, 19, 15, 12, 0, 0, [0, 0, 1, 1, 1, 1, 0, 0]>, <219, 5, 20, 15, 12, 0, 0, [0, 0, 1, 1, 1, 1, 0, 0]>, <220, 6, 21, 15, 12, 0, 0, [0, 0, 1, 1, 1, 1, 0, 0]>, <221, 11, 26, 15, 12, 0, 0, [0, 0, 1, 1, 1, 1, 0, 0]>, <222, 12, 27, 15, 12, 0, 0, [0, 0, 1, 1, 1, 1, 0, 0]>, <223, 13, 28, 15, 12, 0, 0, [0, 0, 1, 1, 1, 1, 0, 0]>, <224, 14, 29, 15, 12, 0, 0, [0, 0, 1, 1, 1, 1, 0, 0]>, <225, 15, 30, 15, 12, 0, 0, [0, 0, 1, 1, 1, 1, 0, 0]>, <226, 16, 31, 15, 12, 0, 0, [0, 0, 1, 1, 1, 1, 0, 0]>, <227, 17, 32, 15, 12, 0, 0, [0, 0, 1, 1, 1, 1, 0, 0]>, <228, 18, 33, 15, 12, 0, 0, [0, 0, 1, 1, 1, 1, 0, 0]>, <229, 19, 34, 15, 12, 0, 0, [0, 0, 1, 1, 1, 1, 0, 0]>, <230, 20, 35, 15, 12, 0, 0, [0, 0, 1, 1, 1, 1, 0, 0]>, <231, 4, 17, 13, 13, 0, 0, [1, 1, 1, 0, 0, 0, 0, 1]>, <232, 5, 18, 13, 13, 0, 0, [1, 1, 1, 0, 0, 0, 0, 1]>, <233, 6, 19, 13, 13, 0, 0, [1, 1, 1, 0, 0, 0, 0, 1]>, <234, 13, 26, 13, 13, 0, 0, [1, 1, 1, 0, 0, 0, 0, 1]>, <235, 14, 27, 13, 13, 0, 0, [1, 1, 1, 0, 0, 0, 0, 1]>, <236, 15, 28, 13, 13, 0, 0, [1, 1, 1, 0, 0, 0, 0, 1]>, <237, 18, 31, 13, 13, 0, 0, [1, 1, 1, 0, 0, 0, 0, 1]>, <238, 19, 32, 13, 13, 0, 0, [1, 1, 1, 0, 0, 0, 0, 1]>, <239, 20, 33, 13, 13, 0, 0, [1, 1, 1, 0, 0, 0, 0, 1]>, <240, 21, 34, 13, 13, 0, 0, [1, 1, 1, 0, 0, 0, 0, 1]>, <241, 22, 35, 13, 13, 0, 0, [1, 1, 1, 0, 0, 0, 0, 1]>, <242, 2, 17, 15, 14, 0, 1, [1, 1, 1, 0, 0, 0, 0, 1]>, <243, 3, 18, 15, 14, 0, 1, [1, 1, 1, 0, 0, 0, 0, 1]>, <244, 4, 19, 15, 14, 0, 1, [1, 1, 1, 0, 0, 0, 0, 1]>, <245, 5, 20, 15, 14, 0, 1, [1, 1, 1, 0, 0, 0, 0, 1]>, <246, 6, 21, 15, 14, 0, 1, [1, 1, 1, 0, 0, 0, 0, 1]>, <247, 11, 26, 15, 14, 0, 1, [1, 1, 1, 0, 0, 0, 0, 1]>, <248, 12, 27, 15, 14, 0, 1, [1, 1, 1, 0, 0, 0, 0, 1]>, <249, 13, 28, 15, 14, 0, 1, [1, 1, 1, 0, 0, 0, 0, 1]>, <250, 14, 29, 15, 14, 0, 1, [1, 1, 1, 0, 0, 0, 0, 1]>, <251, 15, 30, 15, 14, 0, 1, [1, 1, 1, 0, 0, 0, 0, 1]>, <252, 16, 31, 15, 14, 0, 1, [1, 1, 1, 0, 0, 0, 0, 1]>, <253, 17, 32, 15, 14, 0, 1, [1, 1, 1, 0, 0, 0, 0, 1]>, <254, 18, 33, 15, 14, 0, 1, [1, 1, 1, 0, 0, 0, 0, 1]>, <255, 19, 34, 15, 14, 0, 1, [1, 1, 1, 0, 0, 0, 0, 1]>, <256, 20, 35, 15, 14, 0, 1, [1, 1, 1, 0, 0, 0, 0, 1]>, <257, 0, 18, 18, 15, 1, 0, [0, 0, 0, 0, 1, 1, 1, 1]>, <258, 1, 19, 18, 15, 1, 0, [0, 0, 0, 0, 1, 1, 1, 1]>, <259, 2, 20, 18, 15, 1, 0, [0, 0, 0, 0, 1, 1, 1, 1]>, <260, 3, 21, 18, 15, 1, 0, [0, 0, 0, 0, 1, 1, 1, 1]>, <261, 4, 22, 18, 15, 1, 0, [0, 0, 0, 0, 1, 1, 1, 1]>, <262, 5, 23, 18, 15, 1, 0, [0, 0, 0, 0, 1, 1, 1, 1]>, <263, 6, 24, 18, 15, 1, 0, [0, 0, 0, 0, 1, 1, 1, 1]>, <264, 8, 26, 18, 15, 1, 0, [0, 0, 0, 0, 1, 1, 1, 1]>, <265, 9, 27, 18, 15, 1, 0, [0, 0, 0, 0, 1, 1, 1, 1]>, <266, 10, 28, 18, 15, 1, 0, [0, 0, 0, 0, 1, 1, 1, 1]>, <267, 11, 29, 18, 15, 1, 0, [0, 0, 0, 0, 1, 1, 1, 1]>, <268, 12, 30, 18, 15, 1, 0, [0, 0, 0, 0, 1, 1, 1, 1]>, <269, 13, 31, 18, 15, 1, 0, [0, 0, 0, 0, 1, 1, 1, 1]>, <270, 14, 32, 18, 15, 1, 0, [0, 0, 0, 0, 1, 1, 1, 1]>, <271, 15, 33, 18, 15, 1, 0, [0, 0, 0, 0, 1, 1, 1, 1]>, <272, 16, 34, 18, 15, 1, 0, [0, 0, 0, 0, 1, 1, 1, 1]>, <273, 17, 35, 18, 15, 1, 0, [0, 0, 0, 0, 1, 1, 1, 1]>, <274, 0, 18, 18, 16, 0, 1, [0, 1, 1, 1, 1, 0, 0, 0]>, <275, 1, 19, 18, 16, 0, 1, [0, 1, 1, 1, 1, 0, 0, 0]>, <276, 2, 20, 18, 16, 0, 1, [0, 1, 1, 1, 1, 0, 0, 0]>, <277, 3, 21, 18, 16, 0, 1, [0, 1, 1, 1, 1, 0, 0, 0]>, <278, 4, 22, 18, 16, 0, 1, [0, 1, 1, 1, 1, 0, 0, 0]>, <279, 5, 23, 18, 16, 0, 1, [0, 1, 1, 1, 1, 0, 0, 0]>, <280, 6, 24, 18, 16, 0, 1, [0, 1, 1, 1, 1, 0, 0, 0]>, <281, 8, 26, 18, 16, 0, 1, [0, 1, 1, 1, 1, 0, 0, 0]>, <282, 9, 27, 18, 16, 0, 1, [0, 1, 1, 1, 1, 0, 0, 0]>, <283, 10, 28, 18, 16, 0, 1, [0, 1, 1, 1, 1, 0, 0, 0]>, <284, 11, 29, 18, 16, 0, 1, [0, 1, 1, 1, 1, 0, 0, 0]>, <285, 12, 30, 18, 16, 0, 1, [0, 1, 1, 1, 1, 0, 0, 0]>, <286, 13, 31, 18, 16, 0, 1, [0, 1, 1, 1, 1, 0, 0, 0]>, <287, 14, 32, 18, 16, 0, 1, [0, 1, 1, 1, 1, 0, 0, 0]>, <288, 15, 33, 18, 16, 0, 1, [0, 1, 1, 1, 1, 0, 0, 0]>, <289, 16, 34, 18, 16, 0, 1, [0, 1, 1, 1, 1, 0, 0, 0]>, <290, 17, 35, 18, 16, 0, 1, [0, 1, 1, 1, 1, 0, 0, 0]>, <291, 2, 17, 15, 17, 0, 0, [1, 1, 0, 0, 0, 0, 1, 1]>, <292, 3, 18, 15, 17, 0, 0, [1, 1, 0, 0, 0, 0, 1, 1]>, <293, 4, 19, 15, 17, 0, 0, [1, 1, 0, 0, 0, 0, 1, 1]>, <294, 5, 20, 15, 17, 0, 0, [1, 1, 0, 0, 0, 0, 1, 1]>, <295, 6, 21, 15, 17, 0, 0, [1, 1, 0, 0, 0, 0, 1, 1]>, <296, 11, 26, 15, 17, 0, 0, [1, 1, 0, 0, 0, 0, 1, 1]>, <297, 12, 27, 15, 17, 0, 0, [1, 1, 0, 0, 0, 0, 1, 1]>, <298, 13, 28, 15, 17, 0, 0, [1, 1, 0, 0, 0, 0, 1, 1]>, <299, 14, 29, 15, 17, 0, 0, [1, 1, 0, 0, 0, 0, 1, 1]>, <300, 15, 30, 15, 17, 0, 0, [1, 1, 0, 0, 0, 0, 1, 1]>, <301, 16, 31, 15, 17, 0, 0, [1, 1, 0, 0, 0, 0, 1, 1]>, <302, 17, 32, 15, 17, 0, 0, [1, 1, 0, 0, 0, 0, 1, 1]>, <303, 18, 33, 15, 17, 0, 0, [1, 1, 0, 0, 0, 0, 1, 1]>, <304, 19, 34, 15, 17, 0, 0, [1, 1, 0, 0, 0, 0, 1, 1]>, <305, 20, 35, 15, 17, 0, 0, [1, 1, 0, 0, 0, 0, 1, 1]>, <306, 4, 17, 13, 18, 0, 0, [0, 0, 0, 1, 1, 1, 1, 0]>, <307, 5, 18, 13, 18, 0, 0, [0, 0, 0, 1, 1, 1, 1, 0]>, <308, 6, 19, 13, 18, 0, 0, [0, 0, 0, 1, 1, 1, 1, 0]>, <309, 13, 26, 13, 18, 0, 0, [0, 0, 0, 1, 1, 1, 1, 0]>, <310, 14, 27, 13, 18, 0, 0, [0, 0, 0, 1, 1, 1, 1, 0]>, <311, 15, 28, 13, 18, 0, 0, [0, 0, 0, 1, 1, 1, 1, 0]>, <312, 18, 31, 13, 18, 0, 0, [0, 0, 0, 1, 1, 1, 1, 0]>, <313, 19, 32, 13, 18, 0, 0, [0, 0, 0, 1, 1, 1, 1, 0]>, <314, 20, 33, 13, 18, 0, 0, [0, 0, 0, 1, 1, 1, 1, 0]>, <315, 21, 34, 13, 18, 0, 0, [0, 0, 0, 1, 1, 1, 1, 0]>, <316, 22, 35, 13, 18, 0, 0, [0, 0, 0, 1, 1, 1, 1, 0]>, <317, 2, 17, 15, 19, 1, 0, [0, 0, 0, 1, 1, 1, 1, 0]>, <318, 3, 18, 15, 19, 1, 0, [0, 0, 0, 1, 1, 1, 1, 0]>, <319, 4, 19, 15, 19, 1, 0, [0, 0, 0, 1, 1, 1, 1, 0]>, <320, 5, 20, 15, 19, 1, 0, [0, 0, 0, 1, 1, 1, 1, 0]>, <321, 6, 21, 15, 19, 1, 0, [0, 0, 0, 1, 1, 1, 1, 0]>, <322, 11, 26, 15, 19, 1, 0, [0, 0, 0, 1, 1, 1, 1, 0]>, <323, 12, 27, 15, 19, 1, 0, [0, 0, 0, 1, 1, 1, 1, 0]>, <324, 13, 28, 15, 19, 1, 0, [0, 0, 0, 1, 1, 1, 1, 0]>, <325, 14, 29, 15, 19, 1, 0, [0, 0, 0, 1, 1, 1, 1, 0]>, <326, 15, 30, 15, 19, 1, 0, [0, 0, 0, 1, 1, 1, 1, 0]>, <327, 16, 31, 15, 19, 1, 0, [0, 0, 0, 1, 1, 1, 1, 0]>, <328, 17, 32, 15, 19, 1, 0, [0, 0, 0, 1, 1, 1, 1, 0]>, <329, 18, 33, 15, 19, 1, 0, [0, 0, 0, 1, 1, 1, 1, 0]>, <330, 19, 34, 15, 19, 1, 0, [0, 0, 0, 1, 1, 1, 1, 0]>, <331, 20, 35, 15, 19, 1, 0, [0, 0, 0, 1, 1, 1, 1, 0]>, <332, 1, 17, 16, 20, 1, 0, [0, 0, 1, 1, 1, 1, 0, 0]>, <333, 2, 18, 16, 20, 1, 0, [0, 0, 1, 1, 1, 1, 0, 0]>, <334, 3, 19, 16, 20, 1, 0, [0, 0, 1, 1, 1, 1, 0, 0]>, <335, 4, 20, 16, 20, 1, 0, [0, 0, 1, 1, 1, 1, 0, 0]>, <336, 5, 21, 16, 20, 1, 0, [0, 0, 1, 1, 1, 1, 0, 0]>, <337, 6, 22, 16, 20, 1, 0, [0, 0, 1, 1, 1, 1, 0, 0]>, <338, 10, 26, 16, 20, 1, 0, [0, 0, 1, 1, 1, 1, 0, 0]>, <339, 11, 27, 16, 20, 1, 0, [0, 0, 1, 1, 1, 1, 0, 0]>, <340, 12, 28, 16, 20, 1, 0, [0, 0, 1, 1, 1, 1, 0, 0]>, <341, 13, 29, 16, 20, 1, 0, [0, 0, 1, 1, 1, 1, 0, 0]>, <342, 14, 30, 16, 20, 1, 0, [0, 0, 1, 1, 1, 1, 0, 0]>, <343, 15, 31, 16, 20, 1, 0, [0, 0, 1, 1, 1, 1, 0, 0]>, <344, 16, 32, 16, 20, 1, 0, [0, 0, 1, 1, 1, 1, 0, 0]>, <345, 17, 33, 16, 20, 1, 0, [0, 0, 1, 1, 1, 1, 0, 0]>, <346, 18, 34, 16, 20, 1, 0, [0, 0, 1, 1, 1, 1, 0, 0]>, <347, 19, 35, 16, 20, 1, 0, [0, 0, 1, 1, 1, 1, 0, 0]>, <348, 2, 17, 15, 21, 1, 0, [0, 1, 1, 1, 1, 0, 0, 0]>, <349, 3, 18, 15, 21, 1, 0, [0, 1, 1, 1, 1, 0, 0, 0]>, <350, 4, 19, 15, 21, 1, 0, [0, 1, 1, 1, 1, 0, 0, 0]>, <351, 5, 20, 15, 21, 1, 0, [0, 1, 1, 1, 1, 0, 0, 0]>, <352, 6, 21, 15, 21, 1, 0, [0, 1, 1, 1, 1, 0, 0, 0]>, <353, 11, 26, 15, 21, 1, 0, [0, 1, 1, 1, 1, 0, 0, 0]>, <354, 12, 27, 15, 21, 1, 0, [0, 1, 1, 1, 1, 0, 0, 0]>, <355, 13, 28, 15, 21, 1, 0, [0, 1, 1, 1, 1, 0, 0, 0]>, <356, 14, 29, 15, 21, 1, 0, [0, 1, 1, 1, 1, 0, 0, 0]>, <357, 15, 30, 15, 21, 1, 0, [0, 1, 1, 1, 1, 0, 0, 0]>, <358, 16, 31, 15, 21, 1, 0, [0, 1, 1, 1, 1, 0, 0, 0]>, <359, 17, 32, 15, 21, 1, 0, [0, 1, 1, 1, 1, 0, 0, 0]>, <360, 18, 33, 15, 21, 1, 0, [0, 1, 1, 1, 1, 0, 0, 0]>, <361, 19, 34, 15, 21, 1, 0, [0, 1, 1, 1, 1, 0, 0, 0]>, <362, 20, 35, 15, 21, 1, 0, [0, 1, 1, 1, 1, 0, 0, 0]>};
